c turning on binary mode checking
c parsing input formula with 259840 variables and 1039929 clauses
c finished parsing, read 2878768 bytes from proof file
c detected empty clause; start verification via backward checking
c 1722 of 1039929 clauses in core                            
c 537 of 113404 lemmas in core using 10720 resolution steps
c 0 RAT lemmas in core; 16 redundant literals in core lemmas
s VERIFIED
c verification time: 1.576 seconds
